p td 600 1718 
46 1
46 13
46 15
46 19
46 25
46 27
46 29
46 38
46 39
46 42
46 43
46 50
46 62
46 63
46 80
46 82
46 83
46 91
46 97
46 101
46 102
46 107
46 113
46 118
46 130
46 135
46 136
46 142
46 144
46 145
46 149
46 151
46 163
46 167
46 169
46 185
46 188
46 190
46 193
46 213
46 214
46 216
46 218
46 219
46 221
46 222
46 225
46 227
46 254
46 255
46 260
46 263
46 267
46 270
46 272
46 280
46 281
46 282
46 284
46 286
46 287
46 291
46 292
46 301
46 302
46 303
46 308
46 311
46 315
46 318
46 325
46 326
46 330
46 336
46 345
46 351
46 360
46 363
46 366
46 369
46 375
46 378
46 380
46 383
46 388
46 389
46 391
46 394
46 396
46 400
46 404
46 415
46 421
46 422
46 424
46 427
46 431
46 435
46 449
46 459
46 463
46 468
46 469
46 471
46 472
46 475
46 478
46 482
46 483
46 493
46 497
46 499
46 500
46 502
46 503
46 504
46 510
46 511
46 515
46 519
46 521
46 534
46 547
46 555
46 560
46 561
46 562
46 568
46 572
46 577
46 583
46 588
46 595
353 1
353 5
353 8
353 12
353 20
353 30
353 33
353 36
353 42
353 52
353 64
353 66
353 67
353 72
353 73
353 80
353 85
353 87
353 91
353 92
353 94
353 96
353 97
353 103
353 105
353 106
353 110
353 111
353 118
353 120
353 122
353 127
353 131
353 147
353 165
353 180
353 182
353 193
353 197
353 204
353 205
353 210
353 225
353 232
353 250
353 254
353 256
353 261
353 262
353 266
353 268
353 275
353 292
353 296
353 300
353 307
353 323
353 326
353 332
353 337
353 346
353 360
353 384
353 395
353 405
353 408
353 410
353 412
353 414
353 419
353 425
353 426
353 427
353 428
353 433
353 471
353 472
353 484
353 485
353 500
353 505
353 513
353 518
353 527
353 529
353 533
353 534
353 536
353 559
353 570
353 574
353 576
353 579
353 591
353 592
353 596
174 1
174 2
174 3
174 6
174 9
174 11
174 24
174 25
174 37
174 45
174 46
174 52
174 54
174 60
174 65
174 79
174 84
174 85
174 104
174 106
174 108
174 110
174 114
174 118
174 131
174 138
174 144
174 145
174 149
174 153
174 159
174 166
174 168
174 171
174 175
174 185
174 186
174 189
174 192
174 197
174 198
174 199
174 203
174 207
174 212
174 213
174 216
174 229
174 230
174 232
174 237
174 239
174 252
174 255
174 259
174 266
174 267
174 268
174 272
174 278
174 280
174 283
174 298
174 299
174 301
174 302
174 304
174 312
174 314
174 316
174 318
174 320
174 323
174 327
174 329
174 330
174 334
174 337
174 338
174 343
174 357
174 370
174 371
174 382
174 388
174 404
174 409
174 417
174 426
174 441
174 442
174 443
174 446
174 448
174 459
174 463
174 466
174 480
174 491
174 493
174 494
174 497
174 507
174 511
174 514
174 515
174 520
174 523
174 532
174 535
174 536
174 541
174 545
174 547
174 548
174 549
174 553
174 554
174 563
174 569
174 570
174 577
174 593
174 595
75 1
75 3
75 4
75 12
75 13
75 17
75 18
75 23
75 24
75 27
75 29
75 32
75 40
75 42
75 49
75 63
75 65
75 72
75 81
75 93
75 100
75 103
75 104
75 105
75 106
75 109
75 111
75 112
75 116
75 131
75 136
75 141
75 146
75 147
75 148
75 154
75 155
75 158
75 167
75 168
75 173
75 179
75 184
75 186
75 187
75 190
75 198
75 201
75 202
75 206
75 217
75 219
75 220
75 223
75 226
75 230
75 231
75 233
75 237
75 248
75 254
75 257
75 260
75 263
75 267
75 273
75 274
75 278
75 284
75 295
75 301
75 305
75 314
75 322
75 333
75 338
75 342
75 343
75 344
75 346
75 358
75 372
75 384
75 386
75 388
75 389
75 394
75 397
75 410
75 426
75 427
75 428
75 433
75 435
75 441
75 443
75 456
75 457
75 462
75 465
75 466
75 468
75 469
75 470
75 472
75 473
75 476
75 477
75 479
75 480
75 484
75 487
75 493
75 494
75 501
75 504
75 509
75 511
75 520
75 526
75 529
75 531
75 541
75 543
75 545
75 550
75 557
75 558
75 560
75 569
75 577
75 597
537 7
537 10
537 12
537 13
537 17
537 23
537 35
537 37
537 43
537 46
537 48
537 53
537 54
537 57
537 58
537 63
537 64
537 75
537 83
537 84
537 92
537 93
537 94
537 101
537 104
537 105
537 107
537 109
537 112
537 122
537 124
537 130
537 137
537 146
537 150
537 156
537 163
537 167
537 170
537 171
537 188
537 191
537 194
537 195
537 197
537 199
537 214
537 230
537 232
537 235
537 237
537 242
537 251
537 252
537 253
537 258
537 261
537 262
537 272
537 273
537 283
537 284
537 286
537 287
537 290
537 292
537 298
537 302
537 303
537 304
537 306
537 308
537 312
537 325
537 329
537 330
537 333
537 337
537 338
537 341
537 348
537 349
537 352
537 359
537 365
537 369
537 375
537 376
537 380
537 383
537 392
537 393
537 394
537 395
537 397
537 398
537 402
537 403
537 406
537 408
537 412
537 415
537 418
537 436
537 458
537 462
537 464
537 469
537 472
537 477
537 486
537 497
537 501
537 502
537 503
537 512
537 513
537 514
537 521
537 533
537 543
537 546
537 548
537 549
537 550
537 557
537 566
537 567
537 569
537 574
537 576
537 579
537 582
537 584
537 586
537 588
537 590
537 594
262 9
262 14
262 15
262 22
262 26
262 29
262 35
262 53
262 57
262 69
262 71
262 78
262 80
262 82
262 92
262 93
262 94
262 98
262 117
262 118
262 119
262 120
262 123
262 132
262 133
262 136
262 138
262 143
262 147
262 153
262 158
262 162
262 163
262 166
262 167
262 176
262 184
262 186
262 187
262 194
262 197
262 199
262 206
262 219
262 222
262 224
262 235
262 237
262 242
262 244
262 256
262 260
262 261
262 270
262 276
262 277
262 285
262 306
262 307
262 312
262 324
262 328
262 329
262 333
262 339
262 344
262 345
262 350
262 358
262 359
262 371
262 372
262 379
262 380
262 382
262 383
262 386
262 390
262 392
262 397
262 400
262 402
262 408
262 410
262 416
262 421
262 425
262 436
262 438
262 446
262 459
262 460
262 461
262 462
262 464
262 476
262 477
262 483
262 486
262 494
262 495
262 497
262 507
262 513
262 514
262 517
262 521
262 526
262 527
262 528
262 531
262 533
262 535
262 546
262 552
262 556
262 569
262 570
262 573
262 585
262 590
262 591
262 593
262 597
410 1
410 4
410 14
410 19
410 20
410 24
410 25
410 33
410 42
410 55
410 73
410 74
410 75
410 86
410 89
410 106
410 107
410 111
410 113
410 115
410 117
410 122
410 128
410 130
410 131
410 147
410 159
410 160
410 162
410 177
410 188
410 189
410 192
410 193
410 200
410 201
410 210
410 211
410 213
410 214
410 218
410 219
410 220
410 222
410 230
410 233
410 241
410 243
410 246
410 250
410 253
410 256
410 264
410 271
410 273
410 277
410 280
410 282
410 283
410 285
410 302
410 305
410 309
410 314
410 319
410 320
410 323
410 324
410 327
410 329
410 332
410 336
410 340
410 350
410 356
410 357
410 361
410 363
410 364
410 372
410 377
410 381
410 389
410 390
410 393
410 400
410 413
410 419
410 427
410 432
410 435
410 437
410 445
410 447
410 448
410 449
410 451
410 458
410 459
410 463
410 464
410 472
410 478
410 480
410 487
410 507
410 511
410 514
410 518
410 521
410 525
410 527
410 542
410 545
410 551
410 559
410 562
410 565
410 567
410 569
410 577
410 581
410 582
410 583
410 586
410 587
410 588
410 590
410 593
410 594
410 596
364 1
364 10
364 15
364 26
364 27
364 28
364 35
364 37
364 43
364 47
364 49
364 53
364 65
364 67
364 71
364 74
364 75
364 93
364 94
364 102
364 105
364 108
364 109
364 112
364 113
364 118
364 124
364 127
364 128
364 136
364 137
364 140
364 143
364 147
364 148
364 151
364 155
364 160
364 162
364 163
364 174
364 175
364 178
364 193
364 206
364 212
364 214
364 216
364 217
364 219
364 227
364 231
364 236
364 241
364 245
364 246
364 249
364 255
364 258
364 260
364 273
364 278
364 279
364 280
364 293
364 296
364 308
364 318
364 319
364 320
364 324
364 325
364 336
364 344
364 351
364 352
364 357
364 358
364 361
364 363
364 368
364 370
364 374
364 389
364 394
364 398
364 405
364 408
364 411
364 412
364 423
364 426
364 427
364 429
364 430
364 447
364 457
364 459
364 479
364 484
364 485
364 486
364 488
364 493
364 497
364 498
364 499
364 507
364 513
364 516
364 517
364 522
364 523
364 527
364 530
364 535
364 536
364 542
364 546
364 547
364 549
364 551
364 554
364 558
364 565
364 569
364 583
364 585
364 590
364 593
364 598
208 5
208 9
208 17
208 18
208 25
208 35
208 46
208 54
208 59
208 64
208 66
208 67
208 74
208 75
208 76
208 79
208 80
208 82
208 107
208 111
208 112
208 121
208 124
208 133
208 139
208 143
208 144
208 145
208 150
208 158
208 160
208 162
208 164
208 166
208 173
208 180
208 190
208 196
208 197
208 198
208 203
208 206
208 210
208 228
208 232
208 235
208 236
208 243
208 250
208 258
208 266
208 270
208 274
208 277
208 278
208 284
208 285
208 303
208 307
208 318
208 320
208 323
208 325
208 328
208 329
208 332
208 344
208 346
208 350
208 357
208 358
208 367
208 370
208 377
208 379
208 391
208 398
208 405
208 406
208 410
208 415
208 424
208 425
208 426
208 427
208 428
208 429
208 432
208 434
208 444
208 451
208 452
208 454
208 455
208 466
208 467
208 473
208 477
208 479
208 481
208 484
208 486
208 488
208 502
208 511
208 513
208 525
208 529
208 540
208 544
208 547
208 552
208 554
208 556
208 559
208 565
208 572
208 574
208 586
208 589
208 591
208 592
208 593
19 1
19 2
19 3
19 8
19 14
19 19
19 26
19 36
19 41
19 43
19 44
19 46
19 51
19 53
19 60
19 69
19 74
19 76
19 77
19 80
19 82
19 89
19 93
19 94
19 112
19 121
19 125
19 128
19 137
19 138
19 146
19 154
19 157
19 168
19 173
19 176
19 182
19 183
19 186
19 187
19 193
19 203
19 204
19 208
19 209
19 210
19 215
19 221
19 223
19 230
19 233
19 241
19 245
19 247
19 254
19 263
19 266
19 269
19 276
19 279
19 284
19 286
19 287
19 290
19 292
19 293
19 300
19 301
19 305
19 308
19 314
19 315
19 318
19 325
19 332
19 337
19 338
19 340
19 341
19 349
19 352
19 361
19 365
19 376
19 377
19 379
19 383
19 387
19 389
19 391
19 397
19 398
19 406
19 409
19 411
19 414
19 416
19 419
19 422
19 426
19 427
19 429
19 433
19 452
19 457
19 463
19 467
19 474
19 481
19 488
19 491
19 493
19 494
19 504
19 505
19 507
19 517
19 522
19 530
19 534
19 536
19 537
19 540
19 545
19 550
19 558
19 593
19 594
19 595
19 596
19 598
19 600
57 6
57 27
57 35
57 37
57 57
57 66
57 68
57 73
57 74
57 76
57 78
57 83
57 92
57 102
57 108
57 112
57 114
57 118
57 122
57 125
57 138
57 144
57 146
57 148
57 149
57 150
57 155
57 158
57 168
57 171
57 176
57 177
57 181
57 185
57 193
57 196
57 202
57 208
57 228
57 231
57 236
57 248
57 249
57 258
57 261
57 262
57 271
57 272
57 278
57 287
57 292
57 294
57 295
57 299
57 313
57 314
57 319
57 325
57 326
57 327
57 330
57 348
57 354
57 355
57 357
57 359
57 374
57 376
57 382
57 388
57 390
57 397
57 408
57 413
57 414
57 416
57 420
57 422
57 423
57 425
57 431
57 432
57 442
57 444
57 446
57 450
57 454
57 458
57 462
57 464
57 465
57 482
57 485
57 486
57 487
57 493
57 502
57 504
57 524
57 526
57 528
57 530
57 531
57 539
57 561
57 564
57 597
105 4
105 6
105 7
105 8
105 13
105 17
105 18
105 21
105 24
105 28
105 30
105 31
105 34
105 41
105 48
105 62
105 64
105 76
105 77
105 97
105 99
105 100
105 104
105 110
105 117
105 123
105 125
105 132
105 133
105 136
105 137
105 147
105 148
105 149
105 162
105 169
105 179
105 183
105 184
105 190
105 200
105 224
105 225
105 233
105 239
105 240
105 244
105 245
105 246
105 249
105 251
105 253
105 255
105 256
105 280
105 294
105 298
105 305
105 306
105 307
105 308
105 317
105 320
105 321
105 330
105 333
105 337
105 347
105 365
105 369
105 371
105 380
105 381
105 383
105 392
105 396
105 402
105 403
105 407
105 412
105 413
105 422
105 423
105 431
105 433
105 434
105 438
105 440
105 444
105 446
105 463
105 464
105 467
105 471
105 473
105 478
105 483
105 488
105 507
105 508
105 509
105 512
105 519
105 520
105 523
105 536
105 537
105 543
105 544
105 551
105 567
105 570
105 575
105 577
105 582
105 589
105 594
105 599
148 4
148 6
148 24
148 27
148 34
148 40
148 45
148 47
148 56
148 64
148 66
148 70
148 71
148 73
148 80
148 81
148 88
148 91
148 100
148 118
148 121
148 122
148 160
148 161
148 163
148 165
148 168
148 183
148 186
148 187
148 188
148 190
148 196
148 209
148 213
148 215
148 219
148 231
148 233
148 234
148 238
148 248
148 253
148 255
148 257
148 261
148 263
148 267
148 271
148 280
148 281
148 284
148 286
148 300
148 302
148 311
148 314
148 316
148 318
148 322
148 330
148 331
148 332
148 338
148 343
148 345
148 346
148 347
148 352
148 354
148 358
148 375
148 386
148 387
148 388
148 389
148 396
148 407
148 410
148 411
148 428
148 430
148 440
148 441
148 444
148 449
148 459
148 469
148 472
148 476
148 478
148 486
148 504
148 513
148 518
148 521
148 523
148 524
148 525
148 527
148 544
148 549
148 552
148 555
148 556
148 562
148 566
148 567
148 568
148 570
148 578
148 584
148 586
148 590
148 596
148 599
148 600
313 2
313 4
313 5
313 6
313 11
313 15
313 22
313 23
313 37
313 45
313 48
313 53
313 57
313 65
313 72
313 73
313 99
313 103
313 113
313 118
313 124
313 135
313 158
313 161
313 163
313 174
313 197
313 198
313 208
313 250
313 262
313 267
313 271
313 275
313 280
313 281
313 282
313 285
313 286
313 294
313 300
313 301
313 306
313 310
313 311
313 313
313 327
313 330
313 332
313 333
313 342
313 343
313 347
313 348
313 350
313 357
313 362
313 364
313 369
313 370
313 372
313 374
313 382
313 386
313 395
313 402
313 404
313 405
313 410
313 411
313 413
313 418
313 419
313 420
313 424
313 428
313 429
313 434
313 436
313 443
313 446
313 448
313 459
313 461
313 471
313 472
313 479
313 484
313 487
313 492
313 495
313 497
313 508
313 519
313 523
313 525
313 532
313 548
313 553
313 555
313 557
313 559
313 566
313 568
313 569
313 573
313 575
313 581
313 584
313 589
313 592
313 600
